c nIsolatedPIs 3
c maxPI 132
p cnf 786 1963
c gate 133 -51 -127 0
-51 -133 0
-127 -133 0
51 127 133 0
c gate 134 -49 127 0
-49 -134 0
127 -134 0
49 -127 134 0
c gate 135 -133 -134 0
-133 -135 0
-134 -135 0
133 134 135 0
c gate 136 126 -135 0
126 -136 0
-135 -136 0
-126 135 136 0
c gate 137 -50 127 0
-50 -137 0
127 -137 0
50 -127 137 0
c gate 138 -52 -127 0
-52 -138 0
-127 -138 0
52 127 138 0
c gate 139 -137 -138 0
-137 -139 0
-138 -139 0
137 138 139 0
c gate 140 -126 -139 0
-126 -140 0
-139 -140 0
126 139 140 0
c gate 141 -129 -140 0
-129 -141 0
-140 -141 0
129 140 141 0
c gate 142 -136 141 0
-136 -142 0
141 -142 0
136 -141 142 0
c gate 143 -41 127 0
-41 -143 0
127 -143 0
41 -127 143 0
c gate 144 -43 -127 0
-43 -144 0
-127 -144 0
43 127 144 0
c gate 145 126 -144 0
126 -145 0
-144 -145 0
-126 144 145 0
c gate 146 -143 145 0
-143 -146 0
145 -146 0
143 -145 146 0
c gate 147 -42 127 0
-42 -147 0
127 -147 0
42 -127 147 0
c gate 148 -44 -127 0
-44 -148 0
-127 -148 0
44 127 148 0
c gate 149 -126 -148 0
-126 -149 0
-148 -149 0
126 148 149 0
c gate 150 -147 149 0
-147 -150 0
149 -150 0
147 -149 150 0
c gate 151 -146 -150 0
-146 -151 0
-150 -151 0
146 150 151 0
c gate 152 129 -151 0
129 -152 0
-151 -152 0
-129 151 152 0
c gate 153 128 -152 0
128 -153 0
-152 -153 0
-128 152 153 0
c gate 154 -142 153 0
-142 -154 0
153 -154 0
142 -153 154 0
c gate 155 54 127 0
54 -155 0
127 -155 0
-54 -127 155 0
c gate 156 56 -127 0
56 -156 0
-127 -156 0
-56 127 156 0
c gate 157 -126 -156 0
-126 -157 0
-156 -157 0
126 156 157 0
c gate 158 -155 157 0
-155 -158 0
157 -158 0
155 -157 158 0
c gate 159 -55 -127 0
-55 -159 0
-127 -159 0
55 127 159 0
c gate 160 -53 127 0
-53 -160 0
127 -160 0
53 -127 160 0
c gate 161 -159 -160 0
-159 -161 0
-160 -161 0
159 160 161 0
c gate 162 126 -161 0
126 -162 0
-161 -162 0
-126 161 162 0
c gate 163 -129 -162 0
-129 -163 0
-162 -163 0
129 162 163 0
c gate 164 -158 163 0
-158 -164 0
163 -164 0
158 -163 164 0
c gate 165 48 -127 0
48 -165 0
-127 -165 0
-48 127 165 0
c gate 166 46 127 0
46 -166 0
127 -166 0
-46 -127 166 0
c gate 167 -165 -166 0
-165 -167 0
-166 -167 0
165 166 167 0
c gate 168 -126 -167 0
-126 -168 0
-167 -168 0
126 167 168 0
c gate 169 -47 -127 0
-47 -169 0
-127 -169 0
47 127 169 0
c gate 170 -45 127 0
-45 -170 0
127 -170 0
45 -127 170 0
c gate 171 -169 -170 0
-169 -171 0
-170 -171 0
169 170 171 0
c gate 172 126 171 0
126 -172 0
171 -172 0
-126 -171 172 0
c gate 173 -168 -172 0
-168 -173 0
-172 -173 0
168 172 173 0
c gate 174 129 -173 0
129 -174 0
-173 -174 0
-129 173 174 0
c gate 175 -128 -174 0
-128 -175 0
-174 -175 0
128 174 175 0
c gate 176 -164 175 0
-164 -176 0
175 -176 0
164 -175 176 0
c gate 177 -154 -176 0
-154 -177 0
-176 -177 0
154 176 177 0
c gate 178 -131 -177 0
-131 -178 0
-177 -178 0
131 177 178 0
c gate 179 -23 -127 0
-23 -179 0
-127 -179 0
23 127 179 0
c gate 180 -21 127 0
-21 -180 0
127 -180 0
21 -127 180 0
c gate 181 -179 -180 0
-179 -181 0
-180 -181 0
179 180 181 0
c gate 182 126 181 0
126 -182 0
181 -182 0
-126 -181 182 0
c gate 183 -22 127 0
-22 -183 0
127 -183 0
22 -127 183 0
c gate 184 -24 -127 0
-24 -184 0
-127 -184 0
24 127 184 0
c gate 185 -126 -184 0
-126 -185 0
-184 -185 0
126 184 185 0
c gate 186 -183 185 0
-183 -186 0
185 -186 0
183 -185 186 0
c gate 187 -129 -186 0
-129 -187 0
-186 -187 0
129 186 187 0
c gate 188 -182 187 0
-182 -188 0
187 -188 0
182 -187 188 0
c gate 189 -15 -127 0
-15 -189 0
-127 -189 0
15 127 189 0
c gate 190 -13 127 0
-13 -190 0
127 -190 0
13 -127 190 0
c gate 191 -189 -190 0
-189 -191 0
-190 -191 0
189 190 191 0
c gate 192 126 191 0
126 -192 0
191 -192 0
-126 -191 192 0
c gate 193 -14 127 0
-14 -193 0
127 -193 0
14 -127 193 0
c gate 194 -16 -127 0
-16 -194 0
-127 -194 0
16 127 194 0
c gate 195 -126 -194 0
-126 -195 0
-194 -195 0
126 194 195 0
c gate 196 -193 195 0
-193 -196 0
195 -196 0
193 -195 196 0
c gate 197 129 -196 0
129 -197 0
-196 -197 0
-129 196 197 0
c gate 198 -192 197 0
-192 -198 0
197 -198 0
192 -197 198 0
c gate 199 -188 -198 0
-188 -199 0
-198 -199 0
188 198 199 0
c gate 200 -128 -199 0
-128 -200 0
-199 -200 0
128 199 200 0
c gate 201 10 127 0
10 -201 0
127 -201 0
-10 -127 201 0
c gate 202 12 -127 0
12 -202 0
-127 -202 0
-12 127 202 0
c gate 203 -126 -202 0
-126 -203 0
-202 -203 0
126 202 203 0
c gate 204 -201 203 0
-201 -204 0
203 -204 0
201 -203 204 0
c gate 205 11 -127 0
11 -205 0
-127 -205 0
-11 127 205 0
c gate 206 9 127 0
9 -206 0
127 -206 0
-9 -127 206 0
c gate 207 126 -206 0
126 -207 0
-206 -207 0
-126 206 207 0
c gate 208 -205 207 0
-205 -208 0
207 -208 0
205 -207 208 0
c gate 209 -204 -208 0
-204 -209 0
-208 -209 0
204 208 209 0
c gate 210 129 -209 0
129 -210 0
-209 -210 0
-129 209 210 0
c gate 211 20 -127 0
20 -211 0
-127 -211 0
-20 127 211 0
c gate 212 18 127 0
18 -212 0
127 -212 0
-18 -127 212 0
c gate 213 -211 -212 0
-211 -213 0
-212 -213 0
211 212 213 0
c gate 214 -126 -213 0
-126 -214 0
-213 -214 0
126 213 214 0
c gate 215 -19 -127 0
-19 -215 0
-127 -215 0
19 127 215 0
c gate 216 -17 127 0
-17 -216 0
127 -216 0
17 -127 216 0
c gate 217 -215 -216 0
-215 -217 0
-216 -217 0
215 216 217 0
c gate 218 126 217 0
126 -218 0
217 -218 0
-126 -217 218 0
c gate 219 -129 -218 0
-129 -219 0
-218 -219 0
129 218 219 0
c gate 220 -214 219 0
-214 -220 0
219 -220 0
214 -219 220 0
c gate 221 -210 -220 0
-210 -221 0
-220 -221 0
210 220 221 0
c gate 222 128 -221 0
128 -222 0
-221 -222 0
-128 221 222 0
c gate 223 -200 -222 0
-200 -223 0
-222 -223 0
200 222 223 0
c gate 224 131 -223 0
131 -224 0
-223 -224 0
-131 223 224 0
c gate 225 130 -224 0
130 -225 0
-224 -225 0
-130 224 225 0
c gate 226 -178 225 0
-178 -226 0
225 -226 0
178 -225 226 0
c gate 227 132 226 0
132 -227 0
226 -227 0
-132 -226 227 0
c gate 228 -103 127 0
-103 -228 0
127 -228 0
103 -127 228 0
c gate 229 -105 -127 0
-105 -229 0
-127 -229 0
105 127 229 0
c gate 230 126 -229 0
126 -230 0
-229 -230 0
-126 229 230 0
c gate 231 -228 230 0
-228 -231 0
230 -231 0
228 -230 231 0
c gate 232 -106 -127 0
-106 -232 0
-127 -232 0
106 127 232 0
c gate 233 -104 127 0
-104 -233 0
127 -233 0
104 -127 233 0
c gate 234 -232 -233 0
-232 -234 0
-233 -234 0
232 233 234 0
c gate 235 -126 234 0
-126 -235 0
234 -235 0
126 -234 235 0
c gate 236 -129 -235 0
-129 -236 0
-235 -236 0
129 235 236 0
c gate 237 -231 236 0
-231 -237 0
236 -237 0
231 -236 237 0
c gate 238 -95 127 0
-95 -238 0
127 -238 0
95 -127 238 0
c gate 239 -97 -127 0
-97 -239 0
-127 -239 0
97 127 239 0
c gate 240 -238 -239 0
-238 -240 0
-239 -240 0
238 239 240 0
c gate 241 126 240 0
126 -241 0
240 -241 0
-126 -240 241 0
c gate 242 -98 -127 0
-98 -242 0
-127 -242 0
98 127 242 0
c gate 243 -96 127 0
-96 -243 0
127 -243 0
96 -127 243 0
c gate 244 -126 -243 0
-126 -244 0
-243 -244 0
126 243 244 0
c gate 245 -242 244 0
-242 -245 0
244 -245 0
242 -244 245 0
c gate 246 129 -245 0
129 -246 0
-245 -246 0
-129 245 246 0
c gate 247 -241 246 0
-241 -247 0
246 -247 0
241 -246 247 0
c gate 248 -237 -247 0
-237 -248 0
-247 -248 0
237 247 248 0
c gate 249 128 -248 0
128 -249 0
-248 -249 0
-128 248 249 0
c gate 250 -99 127 0
-99 -250 0
127 -250 0
99 -127 250 0
c gate 251 -101 -127 0
-101 -251 0
-127 -251 0
101 127 251 0
c gate 252 -250 -251 0
-250 -252 0
-251 -252 0
250 251 252 0
c gate 253 126 252 0
126 -253 0
252 -253 0
-126 -252 253 0
c gate 254 -102 -127 0
-102 -254 0
-127 -254 0
102 127 254 0
c gate 255 -100 127 0
-100 -255 0
127 -255 0
100 -127 255 0
c gate 256 -126 -255 0
-126 -256 0
-255 -256 0
126 255 256 0
c gate 257 -254 256 0
-254 -257 0
256 -257 0
254 -256 257 0
c gate 258 129 -257 0
129 -258 0
-257 -258 0
-129 257 258 0
c gate 259 -253 258 0
-253 -259 0
258 -259 0
253 -258 259 0
c gate 260 -107 127 0
-107 -260 0
127 -260 0
107 -127 260 0
c gate 261 -109 -127 0
-109 -261 0
-127 -261 0
109 127 261 0
c gate 262 126 -261 0
126 -262 0
-261 -262 0
-126 261 262 0
c gate 263 -260 262 0
-260 -263 0
262 -263 0
260 -262 263 0
c gate 264 -110 -127 0
-110 -264 0
-127 -264 0
110 127 264 0
c gate 265 -108 127 0
-108 -265 0
127 -265 0
108 -127 265 0
c gate 266 -264 -265 0
-264 -266 0
-265 -266 0
264 265 266 0
c gate 267 -126 266 0
-126 -267 0
266 -267 0
126 -266 267 0
c gate 268 -129 -267 0
-129 -268 0
-267 -268 0
129 267 268 0
c gate 269 -263 268 0
-263 -269 0
268 -269 0
263 -268 269 0
c gate 270 -259 -269 0
-259 -270 0
-269 -270 0
259 269 270 0
c gate 271 -128 -270 0
-128 -271 0
-270 -271 0
128 270 271 0
c gate 272 -131 -271 0
-131 -272 0
-271 -272 0
131 271 272 0
c gate 273 -249 272 0
-249 -273 0
272 -273 0
249 -272 273 0
c gate 274 -72 127 0
-72 -274 0
127 -274 0
72 -127 274 0
c gate 275 -74 -127 0
-74 -275 0
-127 -275 0
74 127 275 0
c gate 276 126 -275 0
126 -276 0
-275 -276 0
-126 275 276 0
c gate 277 -274 276 0
-274 -277 0
276 -277 0
274 -276 277 0
c gate 278 -75 -127 0
-75 -278 0
-127 -278 0
75 127 278 0
c gate 279 -73 127 0
-73 -279 0
127 -279 0
73 -127 279 0
c gate 280 -278 -279 0
-278 -280 0
-279 -280 0
278 279 280 0
c gate 281 -126 280 0
-126 -281 0
280 -281 0
126 -280 281 0
c gate 282 -129 -281 0
-129 -282 0
-281 -282 0
129 281 282 0
c gate 283 -277 282 0
-277 -283 0
282 -283 0
277 -282 283 0
c gate 284 -64 127 0
-64 -284 0
127 -284 0
64 -127 284 0
c gate 285 -66 -127 0
-66 -285 0
-127 -285 0
66 127 285 0
c gate 286 -284 -285 0
-284 -286 0
-285 -286 0
284 285 286 0
c gate 287 126 286 0
126 -287 0
286 -287 0
-126 -286 287 0
c gate 288 -67 -127 0
-67 -288 0
-127 -288 0
67 127 288 0
c gate 289 -65 127 0
-65 -289 0
127 -289 0
65 -127 289 0
c gate 290 -288 -289 0
-288 -290 0
-289 -290 0
288 289 290 0
c gate 291 -126 290 0
-126 -291 0
290 -291 0
126 -290 291 0
c gate 292 129 -291 0
129 -292 0
-291 -292 0
-129 291 292 0
c gate 293 -287 292 0
-287 -293 0
292 -293 0
287 -292 293 0
c gate 294 -283 -293 0
-283 -294 0
-293 -294 0
283 293 294 0
c gate 295 128 -294 0
128 -295 0
-294 -295 0
-128 294 295 0
c gate 296 -68 127 0
-68 -296 0
127 -296 0
68 -127 296 0
c gate 297 -70 -127 0
-70 -297 0
-127 -297 0
70 127 297 0
c gate 298 126 -297 0
126 -298 0
-297 -298 0
-126 297 298 0
c gate 299 -296 298 0
-296 -299 0
298 -299 0
296 -298 299 0
c gate 300 -71 -127 0
-71 -300 0
-127 -300 0
71 127 300 0
c gate 301 -69 127 0
-69 -301 0
127 -301 0
69 -127 301 0
c gate 302 -300 -301 0
-300 -302 0
-301 -302 0
300 301 302 0
c gate 303 -126 302 0
-126 -303 0
302 -303 0
126 -302 303 0
c gate 304 129 -303 0
129 -304 0
-303 -304 0
-129 303 304 0
c gate 305 -299 304 0
-299 -305 0
304 -305 0
299 -304 305 0
c gate 306 -76 127 0
-76 -306 0
127 -306 0
76 -127 306 0
c gate 307 -78 -127 0
-78 -307 0
-127 -307 0
78 127 307 0
c gate 308 126 -307 0
126 -308 0
-307 -308 0
-126 307 308 0
c gate 309 -306 308 0
-306 -309 0
308 -309 0
306 -308 309 0
c gate 310 -79 -127 0
-79 -310 0
-127 -310 0
79 127 310 0
c gate 311 -77 127 0
-77 -311 0
127 -311 0
77 -127 311 0
c gate 312 -310 -311 0
-310 -312 0
-311 -312 0
310 311 312 0
c gate 313 -126 312 0
-126 -313 0
312 -313 0
126 -312 313 0
c gate 314 -129 -313 0
-129 -314 0
-313 -314 0
129 313 314 0
c gate 315 -309 314 0
-309 -315 0
314 -315 0
309 -314 315 0
c gate 316 -305 -315 0
-305 -316 0
-315 -316 0
305 315 316 0
c gate 317 -128 -316 0
-128 -317 0
-316 -317 0
128 316 317 0
c gate 318 131 -317 0
131 -318 0
-317 -318 0
-131 317 318 0
c gate 319 -295 318 0
-295 -319 0
318 -319 0
295 -318 319 0
c gate 320 130 -319 0
130 -320 0
-319 -320 0
-130 319 320 0
c gate 321 -273 320 0
-273 -321 0
320 -321 0
273 -320 321 0
c gate 322 -132 321 0
-132 -322 0
321 -322 0
132 -321 322 0
c gate 323 39 -127 0
39 -323 0
-127 -323 0
-39 127 323 0
c gate 324 37 127 0
37 -324 0
127 -324 0
-37 -127 324 0
c gate 325 126 -324 0
126 -325 0
-324 -325 0
-126 324 325 0
c gate 326 -323 325 0
-323 -326 0
325 -326 0
323 -325 326 0
c gate 327 40 -127 0
40 -327 0
-127 -327 0
-40 127 327 0
c gate 328 38 127 0
38 -328 0
127 -328 0
-38 -127 328 0
c gate 329 -126 -328 0
-126 -329 0
-328 -329 0
126 328 329 0
c gate 330 -327 329 0
-327 -330 0
329 -330 0
327 -329 330 0
c gate 331 129 -330 0
129 -331 0
-330 -331 0
-129 330 331 0
c gate 332 -326 331 0
-326 -332 0
331 -332 0
326 -331 332 0
c gate 333 -129 -173 0
-129 -333 0
-173 -333 0
129 173 333 0
c gate 334 -128 -333 0
-128 -334 0
-333 -334 0
128 333 334 0
c gate 335 -332 334 0
-332 -335 0
334 -335 0
332 -334 335 0
c gate 336 -129 -151 0
-129 -336 0
-151 -336 0
129 151 336 0
c gate 337 -33 127 0
-33 -337 0
127 -337 0
33 -127 337 0
c gate 338 -35 -127 0
-35 -338 0
-127 -338 0
35 127 338 0
c gate 339 126 -338 0
126 -339 0
-338 -339 0
-126 338 339 0
c gate 340 -337 339 0
-337 -340 0
339 -340 0
337 -339 340 0
c gate 341 -34 127 0
-34 -341 0
127 -341 0
34 -127 341 0
c gate 342 -36 -127 0
-36 -342 0
-127 -342 0
36 127 342 0
c gate 343 -126 -342 0
-126 -343 0
-342 -343 0
126 342 343 0
c gate 344 -341 343 0
-341 -344 0
343 -344 0
341 -343 344 0
c gate 345 -340 -344 0
-340 -345 0
-344 -345 0
340 344 345 0
c gate 346 129 -345 0
129 -346 0
-345 -346 0
-129 345 346 0
c gate 347 128 -346 0
128 -347 0
-346 -347 0
-128 346 347 0
c gate 348 -336 347 0
-336 -348 0
347 -348 0
336 -347 348 0
c gate 349 -335 -348 0
-335 -349 0
-348 -349 0
335 348 349 0
c gate 350 131 -349 0
131 -350 0
-349 -350 0
-131 349 350 0
c gate 351 126 290 0
126 -351 0
290 -351 0
-126 -290 351 0
c gate 352 -66 127 0
-66 -352 0
127 -352 0
66 -127 352 0
c gate 353 -68 -127 0
-68 -353 0
-127 -353 0
68 127 353 0
c gate 354 -126 -353 0
-126 -354 0
-353 -354 0
126 353 354 0
c gate 355 -352 354 0
-352 -355 0
354 -355 0
352 -354 355 0
c gate 356 129 -355 0
129 -356 0
-355 -356 0
-129 355 356 0
c gate 357 -351 356 0
-351 -357 0
356 -357 0
351 -356 357 0
c gate 358 126 280 0
126 -358 0
280 -358 0
-126 -280 358 0
c gate 359 -74 127 0
-74 -359 0
127 -359 0
74 -127 359 0
c gate 360 -76 -127 0
-76 -360 0
-127 -360 0
76 127 360 0
c gate 361 -126 -360 0
-126 -361 0
-360 -361 0
126 360 361 0
c gate 362 -359 361 0
-359 -362 0
361 -362 0
359 -361 362 0
c gate 363 -129 -362 0
-129 -363 0
-362 -363 0
129 362 363 0
c gate 364 -358 363 0
-358 -364 0
363 -364 0
358 -363 364 0
c gate 365 128 -364 0
128 -365 0
-364 -365 0
-128 364 365 0
c gate 366 -357 365 0
-357 -366 0
365 -366 0
357 -365 366 0
c gate 367 126 312 0
126 -367 0
312 -367 0
-126 -312 367 0
c gate 368 -78 127 0
-78 -368 0
127 -368 0
78 -127 368 0
c gate 369 -80 -127 0
-80 -369 0
-127 -369 0
80 127 369 0
c gate 370 -126 -369 0
-126 -370 0
-369 -370 0
126 369 370 0
c gate 371 -368 370 0
-368 -371 0
370 -371 0
368 -370 371 0
c gate 372 -129 -371 0
-129 -372 0
-371 -372 0
129 371 372 0
c gate 373 -367 372 0
-367 -373 0
372 -373 0
367 -372 373 0
c gate 374 126 302 0
126 -374 0
302 -374 0
-126 -302 374 0
c gate 375 -70 127 0
-70 -375 0
127 -375 0
70 -127 375 0
c gate 376 -72 -127 0
-72 -376 0
-127 -376 0
72 127 376 0
c gate 377 -126 -376 0
-126 -377 0
-376 -377 0
126 376 377 0
c gate 378 -375 377 0
-375 -378 0
377 -378 0
375 -377 378 0
c gate 379 129 -378 0
129 -379 0
-378 -379 0
-129 378 379 0
c gate 380 -374 379 0
-374 -380 0
379 -380 0
374 -379 380 0
c gate 381 -128 -380 0
-128 -381 0
-380 -381 0
128 380 381 0
c gate 382 -373 381 0
-373 -382 0
381 -382 0
373 -381 382 0
c gate 383 -131 -382 0
-131 -383 0
-382 -383 0
131 382 383 0
c gate 384 -366 383 0
-366 -384 0
383 -384 0
366 -383 384 0
c gate 385 130 -384 0
130 -385 0
-384 -385 0
-130 384 385 0
c gate 386 -350 385 0
-350 -386 0
385 -386 0
350 -385 386 0
c gate 387 -132 386 0
-132 -387 0
386 -387 0
132 -386 387 0
c gate 388 -55 127 0
-55 -388 0
127 -388 0
55 -127 388 0
c gate 389 -57 -127 0
-57 -389 0
-127 -389 0
57 127 389 0
c gate 390 126 -389 0
126 -390 0
-389 -390 0
-126 389 390 0
c gate 391 -388 390 0
-388 -391 0
390 -391 0
388 -390 391 0
c gate 392 -56 127 0
-56 -392 0
127 -392 0
56 -127 392 0
c gate 393 -58 -127 0
-58 -393 0
-127 -393 0
58 127 393 0
c gate 394 -392 -393 0
-392 -394 0
-393 -394 0
392 393 394 0
c gate 395 -126 394 0
-126 -395 0
394 -395 0
126 -394 395 0
c gate 396 129 -395 0
129 -396 0
-395 -396 0
-129 395 396 0
c gate 397 -391 396 0
-391 -397 0
396 -397 0
391 -396 397 0
c gate 398 -63 127 0
-63 -398 0
127 -398 0
63 -127 398 0
c gate 399 -65 -127 0
-65 -399 0
-127 -399 0
65 127 399 0
c gate 400 126 -399 0
126 -400 0
-399 -400 0
-126 399 400 0
c gate 401 -398 400 0
-398 -401 0
400 -401 0
398 -400 401 0
c gate 402 -126 286 0
-126 -402 0
286 -402 0
126 -286 402 0
c gate 403 -129 -402 0
-129 -403 0
-402 -403 0
129 402 403 0
c gate 404 -401 403 0
-401 -404 0
403 -404 0
401 -403 404 0
c gate 405 -128 -404 0
-128 -405 0
-404 -405 0
128 404 405 0
c gate 406 -397 405 0
-397 -406 0
405 -406 0
397 -405 406 0
c gate 407 -51 127 0
-51 -407 0
127 -407 0
51 -127 407 0
c gate 408 -53 -127 0
-53 -408 0
-127 -408 0
53 127 408 0
c gate 409 126 -408 0
126 -409 0
-408 -409 0
-126 408 409 0
c gate 410 -407 409 0
-407 -410 0
409 -410 0
407 -409 410 0
c gate 411 -52 127 0
-52 -411 0
127 -411 0
52 -127 411 0
c gate 412 -54 -127 0
-54 -412 0
-127 -412 0
54 127 412 0
c gate 413 -411 -412 0
-411 -413 0
-412 -413 0
411 412 413 0
c gate 414 -126 413 0
-126 -414 0
413 -414 0
126 -413 414 0
c gate 415 129 -414 0
129 -415 0
-414 -415 0
-129 414 415 0
c gate 416 -410 415 0
-410 -416 0
415 -416 0
410 -415 416 0
c gate 417 -60 127 0
-60 -417 0
127 -417 0
60 -127 417 0
c gate 418 -62 -127 0
-62 -418 0
-127 -418 0
62 127 418 0
c gate 419 -126 -418 0
-126 -419 0
-418 -419 0
126 418 419 0
c gate 420 -417 419 0
-417 -420 0
419 -420 0
417 -419 420 0
c gate 421 -59 127 0
-59 -421 0
127 -421 0
59 -127 421 0
c gate 422 -61 -127 0
-61 -422 0
-127 -422 0
61 127 422 0
c gate 423 126 -422 0
126 -423 0
-422 -423 0
-126 422 423 0
c gate 424 -421 423 0
-421 -424 0
423 -424 0
421 -423 424 0
c gate 425 -129 -424 0
-129 -425 0
-424 -425 0
129 424 425 0
c gate 426 -420 425 0
-420 -426 0
425 -426 0
420 -425 426 0
c gate 427 128 -426 0
128 -427 0
-426 -427 0
-128 426 427 0
c gate 428 -416 427 0
-416 -428 0
427 -428 0
416 -427 428 0
c gate 429 -406 -428 0
-406 -429 0
-428 -429 0
406 428 429 0
c gate 430 -131 -429 0
-131 -430 0
-429 -430 0
131 429 430 0
c gate 431 27 127 0
27 -431 0
127 -431 0
-27 -127 431 0
c gate 432 29 -127 0
29 -432 0
-127 -432 0
-29 127 432 0
c gate 433 126 -432 0
126 -433 0
-432 -433 0
-126 432 433 0
c gate 434 -431 433 0
-431 -434 0
433 -434 0
431 -433 434 0
c gate 435 28 127 0
28 -435 0
127 -435 0
-28 -127 435 0
c gate 436 30 -127 0
30 -436 0
-127 -436 0
-30 127 436 0
c gate 437 -126 -436 0
-126 -437 0
-436 -437 0
126 436 437 0
c gate 438 -435 437 0
-435 -438 0
437 -438 0
435 -437 438 0
c gate 439 -434 -438 0
-434 -439 0
-438 -439 0
434 438 439 0
c gate 440 -129 -439 0
-129 -440 0
-439 -440 0
129 439 440 0
c gate 441 21 -127 0
21 -441 0
-127 -441 0
-21 127 441 0
c gate 442 19 127 0
19 -442 0
127 -442 0
-19 -127 442 0
c gate 443 -441 -442 0
-441 -443 0
-442 -443 0
441 442 443 0
c gate 444 126 -443 0
126 -444 0
-443 -444 0
-126 443 444 0
c gate 445 -20 127 0
-20 -445 0
127 -445 0
20 -127 445 0
c gate 446 -22 -127 0
-22 -446 0
-127 -446 0
22 127 446 0
c gate 447 -445 -446 0
-445 -447 0
-446 -447 0
445 446 447 0
c gate 448 -126 447 0
-126 -448 0
447 -448 0
126 -447 448 0
c gate 449 129 -448 0
129 -449 0
-448 -449 0
-129 448 449 0
c gate 450 -444 449 0
-444 -450 0
449 -450 0
444 -449 450 0
c gate 451 -440 -450 0
-440 -451 0
-450 -451 0
440 450 451 0
c gate 452 128 -451 0
128 -452 0
-451 -452 0
-128 451 452 0
c gate 453 32 127 0
32 -453 0
127 -453 0
-32 -127 453 0
c gate 454 34 -127 0
34 -454 0
-127 -454 0
-34 127 454 0
c gate 455 -126 -454 0
-126 -455 0
-454 -455 0
126 454 455 0
c gate 456 -453 455 0
-453 -456 0
455 -456 0
453 -455 456 0
c gate 457 31 127 0
31 -457 0
127 -457 0
-31 -127 457 0
c gate 458 33 -127 0
33 -458 0
-127 -458 0
-33 127 458 0
c gate 459 126 -458 0
126 -459 0
-458 -459 0
-126 458 459 0
c gate 460 -457 459 0
-457 -460 0
459 -460 0
457 -459 460 0
c gate 461 -456 -460 0
-456 -461 0
-460 -461 0
456 460 461 0
c gate 462 -129 -461 0
-129 -462 0
-461 -462 0
129 461 462 0
c gate 463 25 -127 0
25 -463 0
-127 -463 0
-25 127 463 0
c gate 464 23 127 0
23 -464 0
127 -464 0
-23 -127 464 0
c gate 465 -463 -464 0
-463 -465 0
-464 -465 0
463 464 465 0
c gate 466 126 -465 0
126 -466 0
-465 -466 0
-126 465 466 0
c gate 467 -24 127 0
-24 -467 0
127 -467 0
24 -127 467 0
c gate 468 -26 -127 0
-26 -468 0
-127 -468 0
26 127 468 0
c gate 469 -467 -468 0
-467 -469 0
-468 -469 0
467 468 469 0
c gate 470 -126 469 0
-126 -470 0
469 -470 0
126 -469 470 0
c gate 471 129 -470 0
129 -471 0
-470 -471 0
-129 470 471 0
c gate 472 -466 471 0
-466 -472 0
471 -472 0
466 -471 472 0
c gate 473 -462 -472 0
-462 -473 0
-472 -473 0
462 472 473 0
c gate 474 -128 -473 0
-128 -474 0
-473 -474 0
128 473 474 0
c gate 475 131 -474 0
131 -475 0
-474 -475 0
-131 474 475 0
c gate 476 -452 475 0
-452 -476 0
475 -476 0
452 -475 476 0
c gate 477 -430 -476 0
-430 -477 0
-476 -477 0
430 476 477 0
c gate 478 130 -477 0
130 -478 0
-477 -478 0
-130 477 478 0
c gate 479 -132 478 0
-132 -479 0
478 -479 0
132 -478 479 0
c gate 480 -88 -127 0
-88 -480 0
-127 -480 0
88 127 480 0
c gate 481 -86 127 0
-86 -481 0
127 -481 0
86 -127 481 0
c gate 482 -480 -481 0
-480 -482 0
-481 -482 0
480 481 482 0
c gate 483 126 482 0
126 -483 0
482 -483 0
-126 -482 483 0
c gate 484 -89 -127 0
-89 -484 0
-127 -484 0
89 127 484 0
c gate 485 -87 127 0
-87 -485 0
127 -485 0
87 -127 485 0
c gate 486 -126 -485 0
-126 -486 0
-485 -486 0
126 485 486 0
c gate 487 -484 486 0
-484 -487 0
486 -487 0
484 -486 487 0
c gate 488 129 -487 0
129 -488 0
-487 -488 0
-129 487 488 0
c gate 489 -483 488 0
-483 -489 0
488 -489 0
483 -488 489 0
c gate 490 -96 -127 0
-96 -490 0
-127 -490 0
96 127 490 0
c gate 491 -94 127 0
-94 -491 0
127 -491 0
94 -127 491 0
c gate 492 -490 -491 0
-490 -492 0
-491 -492 0
490 491 492 0
c gate 493 126 492 0
126 -493 0
492 -493 0
-126 -492 493 0
c gate 494 -126 240 0
-126 -494 0
240 -494 0
126 -240 494 0
c gate 495 -129 -494 0
-129 -495 0
-494 -495 0
129 494 495 0
c gate 496 -493 495 0
-493 -496 0
495 -496 0
493 -495 496 0
c gate 497 -489 -496 0
-489 -497 0
-496 -497 0
489 496 497 0
c gate 498 128 -497 0
128 -498 0
-497 -498 0
-128 497 498 0
c gate 499 -98 127 0
-98 -499 0
127 -499 0
98 -127 499 0
c gate 500 -100 -127 0
-100 -500 0
-127 -500 0
100 127 500 0
c gate 501 126 -500 0
126 -501 0
-500 -501 0
-126 500 501 0
c gate 502 -499 501 0
-499 -502 0
501 -502 0
499 -501 502 0
c gate 503 -126 252 0
-126 -503 0
252 -503 0
126 -252 503 0
c gate 504 -129 -503 0
-129 -504 0
-503 -504 0
129 503 504 0
c gate 505 -502 504 0
-502 -505 0
504 -505 0
502 -504 505 0
c gate 506 -92 -127 0
-92 -506 0
-127 -506 0
92 127 506 0
c gate 507 -90 127 0
-90 -507 0
127 -507 0
90 -127 507 0
c gate 508 -506 -507 0
-506 -508 0
-507 -508 0
506 507 508 0
c gate 509 126 508 0
126 -509 0
508 -509 0
-126 -508 509 0
c gate 510 -93 -127 0
-93 -510 0
-127 -510 0
93 127 510 0
c gate 511 -91 127 0
-91 -511 0
127 -511 0
91 -127 511 0
c gate 512 -126 -511 0
-126 -512 0
-511 -512 0
126 511 512 0
c gate 513 -510 512 0
-510 -513 0
512 -513 0
510 -512 513 0
c gate 514 129 -513 0
129 -514 0
-513 -514 0
-129 513 514 0
c gate 515 -509 514 0
-509 -515 0
514 -515 0
509 -514 515 0
c gate 516 -505 -515 0
-505 -516 0
-515 -516 0
505 515 516 0
c gate 517 -128 -516 0
-128 -517 0
-516 -517 0
128 516 517 0
c gate 518 131 -517 0
131 -518 0
-517 -518 0
-131 517 518 0
c gate 519 -498 518 0
-498 -519 0
518 -519 0
498 -518 519 0
c gate 520 -3 -127 0
-3 -520 0
-127 -520 0
3 127 520 0
c gate 521 -1 127 0
-1 -521 0
127 -521 0
1 -127 521 0
c gate 522 -520 -521 0
-520 -522 0
-521 -522 0
520 521 522 0
c gate 523 126 522 0
126 -523 0
522 -523 0
-126 -522 523 0
c gate 524 -4 -127 0
-4 -524 0
-127 -524 0
4 127 524 0
c gate 525 -2 127 0
-2 -525 0
127 -525 0
2 -127 525 0
c gate 526 -126 -525 0
-126 -526 0
-525 -526 0
126 525 526 0
c gate 527 -524 526 0
-524 -527 0
526 -527 0
524 -526 527 0
c gate 528 -129 -527 0
-129 -528 0
-527 -528 0
129 527 528 0
c gate 529 -523 528 0
-523 -529 0
528 -529 0
523 -528 529 0
c gate 530 -120 -127 0
-120 -530 0
-127 -530 0
120 127 530 0
c gate 531 -118 127 0
-118 -531 0
127 -531 0
118 -127 531 0
c gate 532 -530 -531 0
-530 -532 0
-531 -532 0
530 531 532 0
c gate 533 126 532 0
126 -533 0
532 -533 0
-126 -532 533 0
c gate 534 -121 -127 0
-121 -534 0
-127 -534 0
121 127 534 0
c gate 535 -119 127 0
-119 -535 0
127 -535 0
119 -127 535 0
c gate 536 -126 -535 0
-126 -536 0
-535 -536 0
126 535 536 0
c gate 537 -534 536 0
-534 -537 0
536 -537 0
534 -536 537 0
c gate 538 129 -537 0
129 -538 0
-537 -538 0
-129 537 538 0
c gate 539 -533 538 0
-533 -539 0
538 -539 0
533 -538 539 0
c gate 540 -529 -539 0
-529 -540 0
-539 -540 0
529 539 540 0
c gate 541 128 -540 0
128 -541 0
-540 -541 0
-128 540 541 0
c gate 542 6 127 0
6 -542 0
127 -542 0
-6 -127 542 0
c gate 543 8 -127 0
8 -543 0
-127 -543 0
-8 127 543 0
c gate 544 -126 -543 0
-126 -544 0
-543 -544 0
126 543 544 0
c gate 545 -542 544 0
-542 -545 0
544 -545 0
542 -544 545 0
c gate 546 5 127 0
5 -546 0
127 -546 0
-5 -127 546 0
c gate 547 7 -127 0
7 -547 0
-127 -547 0
-7 127 547 0
c gate 548 126 -547 0
126 -548 0
-547 -548 0
-126 547 548 0
c gate 549 -546 548 0
-546 -549 0
548 -549 0
546 -548 549 0
c gate 550 -545 -549 0
-545 -550 0
-549 -550 0
545 549 550 0
c gate 551 -129 -550 0
-129 -551 0
-550 -551 0
129 550 551 0
c gate 552 125 -127 0
125 -552 0
-127 -552 0
-125 127 552 0
c gate 553 123 127 0
123 -553 0
127 -553 0
-123 -127 553 0
c gate 554 -552 -553 0
-552 -554 0
-553 -554 0
552 553 554 0
c gate 555 -126 -554 0
-126 -555 0
-554 -555 0
126 554 555 0
c gate 556 -124 -127 0
-124 -556 0
-127 -556 0
124 127 556 0
c gate 557 -122 127 0
-122 -557 0
127 -557 0
122 -127 557 0
c gate 558 -556 -557 0
-556 -558 0
-557 -558 0
556 557 558 0
c gate 559 126 558 0
126 -559 0
558 -559 0
-126 -558 559 0
c gate 560 129 -559 0
129 -560 0
-559 -560 0
-129 559 560 0
c gate 561 -555 560 0
-555 -561 0
560 -561 0
555 -560 561 0
c gate 562 -551 -561 0
-551 -562 0
-561 -562 0
551 561 562 0
c gate 563 -128 -562 0
-128 -563 0
-562 -563 0
128 562 563 0
c gate 564 -541 -563 0
-541 -564 0
-563 -564 0
541 563 564 0
c gate 565 -131 564 0
-131 -565 0
564 -565 0
131 -564 565 0
c gate 566 130 -565 0
130 -566 0
-565 -566 0
-130 565 566 0
c gate 567 -519 566 0
-519 -567 0
566 -567 0
519 -566 567 0
c gate 568 132 567 0
132 -568 0
567 -568 0
-132 -567 568 0
c gate 569 -87 -127 0
-87 -569 0
-127 -569 0
87 127 569 0
c gate 570 -85 127 0
-85 -570 0
127 -570 0
85 -127 570 0
c gate 571 126 -570 0
126 -571 0
-570 -571 0
-126 570 571 0
c gate 572 -569 571 0
-569 -572 0
571 -572 0
569 -571 572 0
c gate 573 -126 482 0
-126 -573 0
482 -573 0
126 -482 573 0
c gate 574 129 -573 0
129 -574 0
-573 -574 0
-129 573 574 0
c gate 575 -572 574 0
-572 -575 0
574 -575 0
572 -574 575 0
c gate 576 -95 -127 0
-95 -576 0
-127 -576 0
95 127 576 0
c gate 577 -93 127 0
-93 -577 0
127 -577 0
93 -127 577 0
c gate 578 126 -577 0
126 -578 0
-577 -578 0
-126 577 578 0
c gate 579 -576 578 0
-576 -579 0
578 -579 0
576 -578 579 0
c gate 580 -126 492 0
-126 -580 0
492 -580 0
126 -492 580 0
c gate 581 -129 -580 0
-129 -581 0
-580 -581 0
129 580 581 0
c gate 582 -579 581 0
-579 -582 0
581 -582 0
579 -581 582 0
c gate 583 -128 -582 0
-128 -583 0
-582 -583 0
128 582 583 0
c gate 584 -575 583 0
-575 -584 0
583 -584 0
575 -583 584 0
c gate 585 -91 -127 0
-91 -585 0
-127 -585 0
91 127 585 0
c gate 586 -89 127 0
-89 -586 0
127 -586 0
89 -127 586 0
c gate 587 126 -586 0
126 -587 0
-586 -587 0
-126 586 587 0
c gate 588 -585 587 0
-585 -588 0
587 -588 0
585 -587 588 0
c gate 589 -126 508 0
-126 -589 0
508 -589 0
126 -508 589 0
c gate 590 -129 -589 0
-129 -590 0
-589 -590 0
129 589 590 0
c gate 591 -588 590 0
-588 -591 0
590 -591 0
588 -590 591 0
c gate 592 -82 127 0
-82 -592 0
127 -592 0
82 -127 592 0
c gate 593 -84 -127 0
-84 -593 0
-127 -593 0
84 127 593 0
c gate 594 -126 -593 0
-126 -594 0
-593 -594 0
126 593 594 0
c gate 595 -592 594 0
-592 -595 0
594 -595 0
592 -594 595 0
c gate 596 -81 127 0
-81 -596 0
127 -596 0
81 -127 596 0
c gate 597 -83 -127 0
-83 -597 0
-127 -597 0
83 127 597 0
c gate 598 126 -597 0
126 -598 0
-597 -598 0
-126 597 598 0
c gate 599 -596 598 0
-596 -599 0
598 -599 0
596 -598 599 0
c gate 600 129 -599 0
129 -600 0
-599 -600 0
-129 599 600 0
c gate 601 -595 600 0
-595 -601 0
600 -601 0
595 -600 601 0
c gate 602 128 -601 0
128 -602 0
-601 -602 0
-128 601 602 0
c gate 603 -591 602 0
-591 -603 0
602 -603 0
591 -602 603 0
c gate 604 -584 -603 0
-584 -604 0
-603 -604 0
584 603 604 0
c gate 605 131 -604 0
131 -605 0
-604 -605 0
-131 604 605 0
c gate 606 -114 127 0
-114 -606 0
127 -606 0
114 -127 606 0
c gate 607 -116 -127 0
-116 -607 0
-127 -607 0
116 127 607 0
c gate 608 -126 -607 0
-126 -608 0
-607 -608 0
126 607 608 0
c gate 609 -606 608 0
-606 -609 0
608 -609 0
606 -608 609 0
c gate 610 115 -127 0
115 -610 0
-127 -610 0
-115 127 610 0
c gate 611 113 127 0
113 -611 0
127 -611 0
-113 -127 611 0
c gate 612 -610 -611 0
-610 -612 0
-611 -612 0
610 611 612 0
c gate 613 126 -612 0
126 -613 0
-612 -613 0
-126 612 613 0
c gate 614 129 -613 0
129 -614 0
-613 -614 0
-129 613 614 0
c gate 615 -609 614 0
-609 -615 0
614 -615 0
609 -614 615 0
c gate 616 -123 -127 0
-123 -616 0
-127 -616 0
123 127 616 0
c gate 617 -121 127 0
-121 -617 0
127 -617 0
121 -127 617 0
c gate 618 126 -617 0
126 -618 0
-617 -618 0
-126 617 618 0
c gate 619 -616 618 0
-616 -619 0
618 -619 0
616 -618 619 0
c gate 620 -126 558 0
-126 -620 0
558 -620 0
126 -558 620 0
c gate 621 -129 -620 0
-129 -621 0
-620 -621 0
129 620 621 0
c gate 622 -619 621 0
-619 -622 0
621 -622 0
619 -621 622 0
c gate 623 -615 -622 0
-615 -623 0
-622 -623 0
615 622 623 0
c gate 624 128 -623 0
128 -624 0
-623 -624 0
-128 623 624 0
c gate 625 119 -127 0
119 -625 0
-127 -625 0
-119 127 625 0
c gate 626 117 127 0
117 -626 0
127 -626 0
-117 -127 626 0
c gate 627 -625 -626 0
-625 -627 0
-626 -627 0
625 626 627 0
c gate 628 126 -627 0
126 -628 0
-627 -628 0
-126 627 628 0
c gate 629 -126 532 0
-126 -629 0
532 -629 0
126 -532 629 0
c gate 630 129 -629 0
129 -630 0
-629 -630 0
-129 629 630 0
c gate 631 -628 630 0
-628 -631 0
630 -631 0
628 -630 631 0
c gate 632 -2 -127 0
-2 -632 0
-127 -632 0
2 127 632 0
c gate 633 -125 127 0
-125 -633 0
127 -633 0
125 -127 633 0
c gate 634 126 -633 0
126 -634 0
-633 -634 0
-126 633 634 0
c gate 635 -632 634 0
-632 -635 0
634 -635 0
632 -634 635 0
c gate 636 -126 522 0
-126 -636 0
522 -636 0
126 -522 636 0
c gate 637 -129 -636 0
-129 -637 0
-636 -637 0
129 636 637 0
c gate 638 -635 637 0
-635 -638 0
637 -638 0
635 -637 638 0
c gate 639 -631 -638 0
-631 -639 0
-638 -639 0
631 638 639 0
c gate 640 -128 -639 0
-128 -640 0
-639 -640 0
128 639 640 0
c gate 641 -131 -640 0
-131 -641 0
-640 -641 0
131 640 641 0
c gate 642 -624 641 0
-624 -642 0
641 -642 0
624 -641 642 0
c gate 643 130 -642 0
130 -643 0
-642 -643 0
-130 642 643 0
c gate 644 -605 643 0
-605 -644 0
643 -644 0
605 -643 644 0
c gate 645 132 644 0
132 -645 0
644 -645 0
-132 -644 645 0
c gate 646 129 439 0
129 -646 0
439 -646 0
-129 -439 646 0
c gate 647 -35 127 0
-35 -647 0
127 -647 0
35 -127 647 0
c gate 648 -37 -127 0
-37 -648 0
-127 -648 0
37 127 648 0
c gate 649 126 -648 0
126 -649 0
-648 -649 0
-126 648 649 0
c gate 650 -647 649 0
-647 -650 0
649 -650 0
647 -649 650 0
c gate 651 -36 127 0
-36 -651 0
127 -651 0
36 -127 651 0
c gate 652 -38 -127 0
-38 -652 0
-127 -652 0
38 127 652 0
c gate 653 -126 -652 0
-126 -653 0
-652 -653 0
126 652 653 0
c gate 654 -651 653 0
-651 -654 0
653 -654 0
651 -653 654 0
c gate 655 -650 -654 0
-650 -655 0
-654 -655 0
650 654 655 0
c gate 656 -129 -655 0
-129 -656 0
-655 -656 0
129 655 656 0
c gate 657 -128 -656 0
-128 -657 0
-656 -657 0
128 656 657 0
c gate 658 -646 657 0
-646 -658 0
657 -658 0
646 -657 658 0
c gate 659 128 -473 0
128 -659 0
-473 -659 0
-128 473 659 0
c gate 660 -131 -659 0
-131 -660 0
-659 -660 0
131 659 660 0
c gate 661 -658 660 0
-658 -661 0
660 -661 0
658 -660 661 0
c gate 662 131 564 0
131 -662 0
564 -662 0
-131 -564 662 0
c gate 663 130 -662 0
130 -663 0
-662 -663 0
-130 662 663 0
c gate 664 -661 663 0
-661 -664 0
663 -664 0
661 -663 664 0
c gate 665 -132 664 0
-132 -665 0
664 -665 0
132 -664 665 0
c gate 666 126 413 0
126 -666 0
413 -666 0
-126 -413 666 0
c gate 667 -126 161 0
-126 -667 0
161 -667 0
126 -161 667 0
c gate 668 -129 -667 0
-129 -668 0
-667 -668 0
129 667 668 0
c gate 669 -666 668 0
-666 -669 0
668 -669 0
666 -668 669 0
c gate 670 -44 127 0
-44 -670 0
127 -670 0
44 -127 670 0
c gate 671 -46 -127 0
-46 -671 0
-127 -671 0
46 127 671 0
c gate 672 126 -671 0
126 -672 0
-671 -672 0
-126 671 672 0
c gate 673 -670 672 0
-670 -673 0
672 -673 0
670 -672 673 0
c gate 674 -126 171 0
-126 -674 0
171 -674 0
126 -171 674 0
c gate 675 129 -674 0
129 -675 0
-674 -675 0
-129 674 675 0
c gate 676 -673 675 0
-673 -676 0
675 -676 0
673 -675 676 0
c gate 677 -669 -676 0
-669 -677 0
-676 -677 0
669 676 677 0
c gate 678 128 -677 0
128 -678 0
-677 -678 0
-128 677 678 0
c gate 679 -48 127 0
-48 -679 0
127 -679 0
48 -127 679 0
c gate 680 -50 -127 0
-50 -680 0
-127 -680 0
50 127 680 0
c gate 681 126 -680 0
126 -681 0
-680 -681 0
-126 680 681 0
c gate 682 -679 681 0
-679 -682 0
681 -682 0
679 -681 682 0
c gate 683 -126 135 0
-126 -683 0
135 -683 0
126 -135 683 0
c gate 684 129 -683 0
129 -684 0
-683 -684 0
-129 683 684 0
c gate 685 -682 684 0
-682 -685 0
684 -685 0
682 -684 685 0
c gate 686 126 394 0
126 -686 0
394 -686 0
-126 -394 686 0
c gate 687 -59 -127 0
-59 -687 0
-127 -687 0
59 127 687 0
c gate 688 -57 127 0
-57 -688 0
127 -688 0
57 -127 688 0
c gate 689 -126 -688 0
-126 -689 0
-688 -689 0
126 688 689 0
c gate 690 -687 689 0
-687 -690 0
689 -690 0
687 -689 690 0
c gate 691 -129 -690 0
-129 -691 0
-690 -691 0
129 690 691 0
c gate 692 -686 691 0
-686 -692 0
691 -692 0
686 -691 692 0
c gate 693 -685 -692 0
-685 -693 0
-692 -693 0
685 692 693 0
c gate 694 -128 -693 0
-128 -694 0
-693 -694 0
128 693 694 0
c gate 695 -131 -694 0
-131 -695 0
-694 -695 0
131 694 695 0
c gate 696 -678 695 0
-678 -696 0
695 -696 0
678 -695 696 0
c gate 697 126 447 0
126 -697 0
447 -697 0
-126 -447 697 0
c gate 698 -126 181 0
-126 -698 0
181 -698 0
126 -181 698 0
c gate 699 -129 -698 0
-129 -699 0
-698 -699 0
129 698 699 0
c gate 700 -697 699 0
-697 -700 0
699 -700 0
697 -699 700 0
c gate 701 -12 127 0
-12 -701 0
127 -701 0
12 -127 701 0
c gate 702 -14 -127 0
-14 -702 0
-127 -702 0
14 127 702 0
c gate 703 126 -702 0
126 -703 0
-702 -703 0
-126 702 703 0
c gate 704 -701 703 0
-701 -704 0
703 -704 0
701 -703 704 0
c gate 705 -126 191 0
-126 -705 0
191 -705 0
126 -191 705 0
c gate 706 129 -705 0
129 -706 0
-705 -706 0
-129 705 706 0
c gate 707 -704 706 0
-704 -707 0
706 -707 0
704 -706 707 0
c gate 708 -700 -707 0
-700 -708 0
-707 -708 0
700 707 708 0
c gate 709 128 -708 0
128 -709 0
-708 -709 0
-128 708 709 0
c gate 710 -16 127 0
-16 -710 0
127 -710 0
16 -127 710 0
c gate 711 -18 -127 0
-18 -711 0
-127 -711 0
18 127 711 0
c gate 712 126 -711 0
126 -712 0
-711 -712 0
-126 711 712 0
c gate 713 -710 712 0
-710 -713 0
712 -713 0
710 -712 713 0
c gate 714 -126 217 0
-126 -714 0
217 -714 0
126 -217 714 0
c gate 715 129 -714 0
129 -715 0
-714 -715 0
-129 714 715 0
c gate 716 -713 715 0
-713 -716 0
715 -716 0
713 -715 716 0
c gate 717 126 469 0
126 -717 0
469 -717 0
-126 -469 717 0
c gate 718 -27 -127 0
-27 -718 0
-127 -718 0
27 127 718 0
c gate 719 -25 127 0
-25 -719 0
127 -719 0
25 -127 719 0
c gate 720 -126 -719 0
-126 -720 0
-719 -720 0
126 719 720 0
c gate 721 -718 720 0
-718 -721 0
720 -721 0
718 -720 721 0
c gate 722 -129 -721 0
-129 -722 0
-721 -722 0
129 721 722 0
c gate 723 -717 722 0
-717 -723 0
722 -723 0
717 -722 723 0
c gate 724 -716 -723 0
-716 -724 0
-723 -724 0
716 723 724 0
c gate 725 -128 -724 0
-128 -725 0
-724 -725 0
128 724 725 0
c gate 726 131 -725 0
131 -726 0
-725 -726 0
-131 725 726 0
c gate 727 -709 726 0
-709 -727 0
726 -727 0
709 -726 727 0
c gate 728 130 -727 0
130 -728 0
-727 -728 0
-130 727 728 0
c gate 729 -696 728 0
-696 -729 0
728 -729 0
696 -728 729 0
c gate 730 227 -729 0
227 -730 0
-729 -730 0
-227 729 730 0
c gate 731 132 478 0
132 -731 0
478 -731 0
-132 -478 731 0
c gate 732 -730 -731 0
-730 -732 0
-731 -732 0
730 731 732 0
c gate 733 132 386 0
132 -733 0
386 -733 0
-132 -386 733 0
c gate 734 105 127 0
105 -734 0
127 -734 0
-105 -127 734 0
c gate 735 107 -127 0
107 -735 0
-127 -735 0
-107 127 735 0
c gate 736 -126 -735 0
-126 -736 0
-735 -736 0
126 735 736 0
c gate 737 -734 736 0
-734 -737 0
736 -737 0
734 -736 737 0
c gate 738 126 -234 0
126 -738 0
-234 -738 0
-126 234 738 0
c gate 739 129 -738 0
129 -739 0
-738 -739 0
-129 738 739 0
c gate 740 -737 739 0
-737 -740 0
739 -740 0
737 -739 740 0
c gate 741 114 -127 0
114 -741 0
-127 -741 0
-114 127 741 0
c gate 742 112 127 0
112 -742 0
127 -742 0
-112 -127 742 0
c gate 743 126 -742 0
126 -743 0
-742 -743 0
-126 742 743 0
c gate 744 -741 743 0
-741 -744 0
743 -744 0
741 -743 744 0
c gate 745 -126 612 0
-126 -745 0
612 -745 0
126 -612 745 0
c gate 746 -129 -745 0
-129 -746 0
-745 -746 0
129 745 746 0
c gate 747 -744 746 0
-744 -747 0
746 -747 0
744 -746 747 0
c gate 748 -740 -747 0
-740 -748 0
-747 -748 0
740 747 748 0
c gate 749 128 -748 0
128 -749 0
-748 -749 0
-128 748 749 0
c gate 750 109 127 0
109 -750 0
127 -750 0
-109 -127 750 0
c gate 751 111 -127 0
111 -751 0
-127 -751 0
-111 127 751 0
c gate 752 -126 -751 0
-126 -752 0
-751 -752 0
126 751 752 0
c gate 753 -750 752 0
-750 -753 0
752 -753 0
750 -752 753 0
c gate 754 126 -266 0
126 -754 0
-266 -754 0
-126 266 754 0
c gate 755 129 -754 0
129 -755 0
-754 -755 0
-129 754 755 0
c gate 756 -753 755 0
-753 -756 0
755 -756 0
753 -755 756 0
c gate 757 118 -127 0
118 -757 0
-127 -757 0
-118 127 757 0
c gate 758 116 127 0
116 -758 0
127 -758 0
-116 -127 758 0
c gate 759 126 -758 0
126 -759 0
-758 -759 0
-126 758 759 0
c gate 760 -757 759 0
-757 -760 0
759 -760 0
757 -759 760 0
c gate 761 -126 627 0
-126 -761 0
627 -761 0
126 -627 761 0
c gate 762 -129 -761 0
-129 -762 0
-761 -762 0
129 761 762 0
c gate 763 -760 762 0
-760 -763 0
762 -763 0
760 -762 763 0
c gate 764 -756 -763 0
-756 -764 0
-763 -764 0
756 763 764 0
c gate 765 -128 -764 0
-128 -765 0
-764 -765 0
128 764 765 0
c gate 766 131 -765 0
131 -766 0
-765 -766 0
-131 765 766 0
c gate 767 -749 766 0
-749 -767 0
766 -767 0
749 -766 767 0
c gate 768 -131 -223 0
-131 -768 0
-223 -768 0
131 223 768 0
c gate 769 130 -768 0
130 -769 0
-768 -769 0
-130 768 769 0
c gate 770 -767 769 0
-767 -770 0
769 -770 0
767 -769 770 0
c gate 771 -132 770 0
-132 -771 0
770 -771 0
132 -770 771 0
c gate 772 -733 -771 0
-733 -772 0
-771 -772 0
733 771 772 0
c gate 773 732 772 0
732 -773 0
772 -773 0
-732 -772 773 0
c gate 774 -665 -773 0
-665 -774 0
-773 -774 0
665 773 774 0
c gate 775 -132 226 0
-132 -775 0
226 -775 0
132 -226 775 0
c gate 776 -774 -775 0
-774 -776 0
-775 -776 0
774 775 776 0
c gate 777 132 321 0
132 -777 0
321 -777 0
-132 -321 777 0
c gate 778 -132 729 0
-132 -778 0
729 -778 0
132 -729 778 0
c gate 779 -777 -778 0
-777 -779 0
-778 -779 0
777 778 779 0
c gate 780 -776 779 0
-776 -780 0
779 -780 0
776 -779 780 0
c gate 781 -645 780 0
-645 -781 0
780 -781 0
645 -780 781 0
c gate 782 -568 781 0
-568 -782 0
781 -782 0
568 -781 782 0
c gate 783 -479 -782 0
-479 -783 0
-782 -783 0
479 782 783 0
c gate 784 -387 783 0
-387 -784 0
783 -784 0
387 -783 784 0
c gate 785 322 -784 0
322 -785 0
-784 -785 0
-322 784 785 0
c gate 786 -227 -785 0
-227 -786 0
-785 -786 0
227 785 786 0
c PO
-786 0
